proyfinal/src/viki/013/experimentInOfficeAgust.take6.output/16ef153b-e6d6-476e-ab7f-8884475dbd4a.als.out
Reading from standard input... Use '--help' for help.
============================[ Problem Statistics ]=============================
|                                                                             |
|  Number of variables:         87638                                         |
|  Number of clauses:          161767                                         |
|  Parse time:                   0.03 s                                       |
|                                                                             |
============================[ Search Statistics ]==============================
| Conflicts |          ORIGINAL         |          LEARNT          | Progress |
|           |    Vars  Clauses Literals |    Limit  Clauses Lit/Cl |          |
===============================================================================
|       100 |   63853   110495   276033 |    40514      100     85 | 27.140 % |
|       250 |   63853   110495   276033 |    44566      250     66 | 27.140 % |
|       475 |   63853   110495   276033 |    49022      475     98 | 27.140 % |
|       812 |   63853   110495   276033 |    53925      812    102 | 27.140 % |
|      1318 |   63853   110495   276033 |    59317     1318     85 | 27.140 % |
|      2077 |   55047    84031   210794 |    65249     1950     79 | 37.188 % |
|      3216 |   54904    83534   209609 |    71774     3082     64 | 37.351 % |
|      4924 |   54577    82193   206450 |    78951     4741     63 | 37.725 % |
|      7486 |   54572    82133   206316 |    86847     7285     62 | 37.730 % |
|     11330 |   54498    81806   205544 |    95531    11105     65 | 37.815 % |
|     17096 |   54280    80913   203412 |   105085    16731     68 | 38.063 % |
===============================================================================
restarts              : 63
conflicts             : 19196          (7385 /sec)
decisions             : 76529          (0.00 % random) (29440 /sec)
propagations          : 27431230       (10552628 /sec)
conflict literals     : 1315601        (43.15 % deleted)
Memory used           : 28.77 MB
CPU time              : 2.59947 s

INDETERMINATE
